column=8;
row=8;
max=5;
left=[2, 0, 5, 1, 0, 3, 0, 5];
right=[1, 0, 3, 4, 0, 2, 3, 3];
top=[2, 3, 4, 0, 0, 0, 0, 1];
bottom=[5, 4, 1, 0, 0, 3, 3, 0];
Board=[|0,0,4,0,3,5,0,1|4,3,0,2,0,0,1,5|0,0,0,4,1,2,0,0|1,0,2,3,0,0,5,4|0,0,3,0,5,1,4,2|0,1,5,0,0,4,0,0|0,2,1,0,0,0,0,0|0,4,0,1,0,0,3,0|]